
Gurobi 13.0.2 (win64) logging started Thu Jul 23 05:48:23 2026

Set parameter LogFile to value "E:\codes\ExactEBRP\results\gf_cplex_equivalent_gurobi_replica_round28\runs\stage2__high_imbalance_seed4201__c3_replica__300s\external\native_logs\R.0.0_lp.gurobi.log"
Gurobi Optimizer version 13.0.2 build v13.0.2rc1 (win64 - Windows 10.0 (19045.2))

CPU model: 12th Gen Intel(R) Core(TM) i7-12700KF, instruction set [SSE2|AVX|AVX2]
Thread count: 12 physical cores, 20 logical processors, using up to 1 threads

Non-default parameters:
TimeLimit  259.4848694
MIPGap  0
MIPGapAbs  0
LogToConsole  0
Threads  1

Optimize a model with 11902 rows, 3374 columns and 67101 nonzeros (Min)
Model fingerprint: 0x32de8281
Model has 21 linear objective coefficients
Coefficient statistics:
  Matrix range     [1e-02, 2e+04]
  Objective range  [1e-02, 1e+00]
  Bounds range     [2e-01, 3e+03]
  RHS range        [2e-01, 5e+04]

Presolve removed 1743 rows and 127 columns
Presolve time: 0.04s
Presolved: 10159 rows, 3248 columns, 53887 nonzeros

Iteration    Objective       Primal Inf.    Dual Inf.      Time
       0    1.7406363e+00   1.252462e+03   0.000000e+00      0s

Solved in 556 iterations and 0.05 seconds (0.13 work units)
Infeasible model

User-callback calls 715, time in user-callback 0.00 sec
